10
0 163 626 372 407 809 347 466 593 427
163 0 579 532 260 862 195 329 754 553
626 579 0 897 448 495 483 392 958 615
372 532 897 0 777 882 718 830 289 389
407 260 448 777 0 861 68 79 965 699
809 862 495 882 861 0 868 833 783 494
347 195 483 718 68 868 0 143 917 666
466 329 392 830 79 833 143 0 1003 718
593 754 958 289 965 783 917 1003 0 346
427 553 615 389 699 494 666 718 346 0
